PROBLEM NAME: eil51_n7
KNAPSACK DATA TYPE: uncorrelated, similar weights
DIMENSION: 7
NUMBER OF ITEMS: 6
CAPACITY OF KNAPSACK: 545590
MIN SPEED: 0.1
MAX SPEED: 1
RENTING RATIO: 7.84
EDGE_WEIGHT_TYPE: CEIL_2D
NODE_COORD_SECTION	(INDEX, X, Y):
1	42	57
2	7	38
3	30	48
4	45	35
5	5	6
6	56	37
7	30	40
ITEMS SECTION	(INDEX, PROFIT, WEIGHT, ASSIGNED NODE NUMBER):
1	930	100080	3
2	906	100007	7
3	811	100011	2
4	724	100026	5
5	428	100017	4
6	416	100009	6
